min: 53 x1_1 + 56 x1_2 + 15 x1_3 + 37 x1_4 + 22 x1_5 + 29 x1_6 + 66 x2_1 + 17 x2_2 + 74 x2_3 + 8 x2_4 + 5 x2_5 + 74 x2_6 + 99 x3_1 + 50 x3_2 + 2 x3_3 + 82 x3_4 + 24 x3_5 + 42 x3_6 + 5 x4_1 + 98 x4_2 + 58 x4_3 + 26 x4_4 + 14 x4_5 + 6 x4_6 + 84 x5_1 + 90 x5_2 + 73 x5_3 + 27 x5_4 + 38 x5_5 + 93 x5_6 + 90 x6_1 + 19 x6_2 + 64 x6_3 + 31 x6_4 + 15 x6_5 + 13 x6_6;

st
x1_1 + x1_2 + x1_3 + x1_4 + x1_5 + x1_6 <= 1186;
x2_1 + x2_2 + x2_3 + x2_4 + x2_5 + x2_6 <= 1492;
x3_1 + x3_2 + x3_3 + x3_4 + x3_5 + x3_6 <= 4026;
x4_1 + x4_2 + x4_3 + x4_4 + x4_5 + x4_6 <= 536;
x5_1 + x5_2 + x5_3 + x5_4 + x5_5 + x5_6 <= 4341;
x6_1 + x6_2 + x6_3 + x6_4 + x6_5 + x6_6 <= 2635;

x1_1 + x2_1 + x3_1 + x4_1 + x5_1 + x6_1 = 1342;
x1_2 + x2_2 + x3_2 + x4_2 + x5_2 + x6_2 = 16;
x1_3 + x2_3 + x3_3 + x4_3 + x5_3 + x6_3 = 3102;
x1_4 + x2_4 + x3_4 + x4_4 + x5_4 + x6_4 = 1510;
x1_5 + x2_5 + x3_5 + x4_5 + x5_5 + x6_5 = 4546;
x1_6 + x2_6 + x3_6 + x4_6 + x5_6 + x6_6 = 1076;

x1_1 >= 0;
x1_2 >= 0;
x1_3 >= 0;
x1_4 >= 0;
x1_5 >= 0;
x1_6 >= 0;
x2_1 >= 0;
x2_2 >= 0;
x2_3 >= 0;
x2_4 >= 0;
x2_5 >= 0;
x2_6 >= 0;
x3_1 >= 0;
x3_2 >= 0;
x3_3 >= 0;
x3_4 >= 0;
x3_5 >= 0;
x3_6 >= 0;
x4_1 >= 0;
x4_2 >= 0;
x4_3 >= 0;
x4_4 >= 0;
x4_5 >= 0;
x4_6 >= 0;
x5_1 >= 0;
x5_2 >= 0;
x5_3 >= 0;
x5_4 >= 0;
x5_5 >= 0;
x5_6 >= 0;
x6_1 >= 0;
x6_2 >= 0;
x6_3 >= 0;
x6_4 >= 0;
x6_5 >= 0;
x6_6 >= 0;